
Gurobi 8.0.0 (mac64, Python) logging started Wed Jun 20 15:00:08 2018


Gurobi 8.0.0 (mac64, Python) logging started Wed Jun 20 15:03:38 2018

Optimize a model with 65 rows, 36 columns and 174 nonzeros
Variable types: 1 continuous, 35 integer (0 binary)
Coefficient statistics:
  Matrix range     [1e+00, 1e+03]
  Objective range  [1e+00, 1e+00]
  Bounds range     [1e+00, 1e+00]
  RHS range        [1e+00, 1e+03]
Found heuristic solution: objective 20.0000000
Presolve time: 0.01s
Presolved: 65 rows, 36 columns, 174 nonzeros
Variable types: 0 continuous, 36 integer (22 binary)

Root relaxation: objective 1.400000e+01, 15 iterations, 0.00 seconds

    Nodes    |    Current Node    |     Objective Bounds      |     Work
 Expl Unexpl |  Obj  Depth IntInf | Incumbent    BestBd   Gap | It/Node Time

     0     0   14.00000    0    8   20.00000   14.00000  30.0%     -    0s
H    0     0                      16.0000000   14.00000  12.5%     -    0s
     0     0 infeasible    0        16.00000   16.00000  0.00%     -    0s
     0     0 infeasible    0        16.00000   16.00000  0.00%     -    0s

Cutting planes:
  Implied bound: 2

Explored 1 nodes (22 simplex iterations) in 0.04 seconds
Thread count was 8 (of 8 available processors)

Solution count 2: 16 20 

Optimal solution found (tolerance 1.00e-04)
Best objective 1.600000000000e+01, best bound 1.600000000000e+01, gap 0.0000%
Freed default Gurobi environment

Gurobi 8.0.0 (mac64, Python) logging started Wed Jun 20 15:17:42 2018

Optimize a model with 65 rows, 36 columns and 174 nonzeros
Variable types: 1 continuous, 35 integer (0 binary)
Coefficient statistics:
  Matrix range     [1e+00, 1e+03]
  Objective range  [1e+00, 1e+00]
  Bounds range     [1e+00, 1e+00]
  RHS range        [1e+00, 1e+03]
Found heuristic solution: objective 20.0000000
Presolve time: 0.00s
Presolved: 65 rows, 36 columns, 174 nonzeros
Variable types: 0 continuous, 36 integer (22 binary)

Root relaxation: objective 1.400000e+01, 15 iterations, 0.00 seconds

    Nodes    |    Current Node    |     Objective Bounds      |     Work
 Expl Unexpl |  Obj  Depth IntInf | Incumbent    BestBd   Gap | It/Node Time

     0     0   14.00000    0    8   20.00000   14.00000  30.0%     -    0s
H    0     0                      16.0000000   14.00000  12.5%     -    0s
     0     0 infeasible    0        16.00000   16.00000  0.00%     -    0s
     0     0 infeasible    0        16.00000   16.00000  0.00%     -    0s

Cutting planes:
  Implied bound: 2

Explored 1 nodes (22 simplex iterations) in 0.02 seconds
Thread count was 8 (of 8 available processors)

Solution count 2: 16 20 

Optimal solution found (tolerance 1.00e-04)
Best objective 1.600000000000e+01, best bound 1.600000000000e+01, gap 0.0000%
Freed default Gurobi environment

Gurobi 8.0.0 (mac64, Python) logging started Wed Jun 20 15:25:48 2018

Optimize a model with 33 rows, 19 columns and 82 nonzeros
Variable types: 1 continuous, 18 integer (0 binary)
Coefficient statistics:
  Matrix range     [1e+00, 1e+03]
  Objective range  [1e+00, 1e+00]
  Bounds range     [1e+00, 1e+00]
  RHS range        [3e+00, 1e+03]
Found heuristic solution: objective 39.0000000
Presolve time: 0.00s
Presolved: 33 rows, 19 columns, 82 nonzeros
Variable types: 0 continuous, 19 integer (8 binary)

Root relaxation: objective 2.600000e+01, 7 iterations, 0.00 seconds

    Nodes    |    Current Node    |     Objective Bounds      |     Work
 Expl Unexpl |  Obj  Depth IntInf | Incumbent    BestBd   Gap | It/Node Time

     0     0   26.00000    0    6   39.00000   26.00000  33.3%     -    0s
H    0     0                      33.0000000   26.00000  21.2%     -    0s
H    0     0                      28.0000000   26.00000  7.14%     -    0s
     0     0 infeasible    0        28.00000   28.00000  0.00%     -    0s
     0     0 infeasible    0        28.00000   28.00000  0.00%     -    0s

Explored 1 nodes (10 simplex iterations) in 0.02 seconds
Thread count was 8 (of 8 available processors)

Solution count 3: 28 33 39 

Optimal solution found (tolerance 1.00e-04)
Best objective 2.800000000000e+01, best bound 2.800000000000e+01, gap 0.0000%
Freed default Gurobi environment

Gurobi 8.0.0 (mac64, Python) logging started Wed Jun 20 15:48:14 2018

Optimize a model with 33 rows, 19 columns and 82 nonzeros
Variable types: 1 continuous, 18 integer (0 binary)
Coefficient statistics:
  Matrix range     [1e+00, 1e+03]
  Objective range  [1e+00, 1e+00]
  Bounds range     [1e+00, 1e+00]
  RHS range        [3e+00, 1e+03]
Found heuristic solution: objective 39.0000000
Presolve time: 0.00s
Presolved: 33 rows, 19 columns, 82 nonzeros
Variable types: 0 continuous, 19 integer (8 binary)

Root relaxation: objective 2.600000e+01, 7 iterations, 0.00 seconds

    Nodes    |    Current Node    |     Objective Bounds      |     Work
 Expl Unexpl |  Obj  Depth IntInf | Incumbent    BestBd   Gap | It/Node Time

     0     0   26.00000    0    6   39.00000   26.00000  33.3%     -    0s
H    0     0                      33.0000000   26.00000  21.2%     -    0s
H    0     0                      28.0000000   26.00000  7.14%     -    0s
     0     0 infeasible    0        28.00000   28.00000  0.00%     -    0s
     0     0 infeasible    0        28.00000   28.00000  0.00%     -    0s

Explored 1 nodes (10 simplex iterations) in 0.02 seconds
Thread count was 8 (of 8 available processors)

Solution count 3: 28 33 39 

Optimal solution found (tolerance 1.00e-04)
Best objective 2.800000000000e+01, best bound 2.800000000000e+01, gap 0.0000%
Optimize a model with 65 rows, 36 columns and 174 nonzeros
Variable types: 1 continuous, 35 integer (0 binary)
Coefficient statistics:
  Matrix range     [1e+00, 1e+03]
  Objective range  [1e+00, 1e+00]
  Bounds range     [1e+00, 1e+00]
  RHS range        [1e+00, 1e+03]
Found heuristic solution: objective 20.0000000
Presolve time: 0.00s
Presolved: 65 rows, 36 columns, 174 nonzeros
Variable types: 0 continuous, 36 integer (22 binary)

Root relaxation: objective 1.400000e+01, 15 iterations, 0.00 seconds

    Nodes    |    Current Node    |     Objective Bounds      |     Work
 Expl Unexpl |  Obj  Depth IntInf | Incumbent    BestBd   Gap | It/Node Time

     0     0   14.00000    0    8   20.00000   14.00000  30.0%     -    0s
H    0     0                      16.0000000   14.00000  12.5%     -    0s
     0     0 infeasible    0        16.00000   16.00000  0.00%     -    0s
     0     0 infeasible    0        16.00000   16.00000  0.00%     -    0s

Cutting planes:
  Implied bound: 2

Explored 1 nodes (22 simplex iterations) in 0.02 seconds
Thread count was 8 (of 8 available processors)

Solution count 2: 16 20 

Optimal solution found (tolerance 1.00e-04)
Best objective 1.600000000000e+01, best bound 1.600000000000e+01, gap 0.0000%
Optimize a model with 65 rows, 36 columns and 174 nonzeros
Variable types: 1 continuous, 35 integer (0 binary)
Coefficient statistics:
  Matrix range     [1e+00, 1e+03]
  Objective range  [1e+00, 1e+00]
  Bounds range     [1e+00, 1e+00]
  RHS range        [1e+00, 1e+03]
Found heuristic solution: objective 20.0000000
Presolve time: 0.00s
Presolved: 65 rows, 36 columns, 174 nonzeros
Variable types: 0 continuous, 36 integer (22 binary)

Root relaxation: objective 1.400000e+01, 15 iterations, 0.00 seconds

    Nodes    |    Current Node    |     Objective Bounds      |     Work
 Expl Unexpl |  Obj  Depth IntInf | Incumbent    BestBd   Gap | It/Node Time

     0     0   14.00000    0    8   20.00000   14.00000  30.0%     -    0s
H    0     0                      16.0000000   14.00000  12.5%     -    0s
     0     0 infeasible    0        16.00000   16.00000  0.00%     -    0s
     0     0 infeasible    0        16.00000   16.00000  0.00%     -    0s

Cutting planes:
  Implied bound: 2

Explored 1 nodes (22 simplex iterations) in 0.02 seconds
Thread count was 8 (of 8 available processors)

Solution count 2: 16 20 

Optimal solution found (tolerance 1.00e-04)
Best objective 1.600000000000e+01, best bound 1.600000000000e+01, gap 0.0000%
Freed default Gurobi environment
